row=9;
Board=[|5,0,4,3,0,0,0,0,2,8|0,0,0,5,0,0,0,10,0,0|7,0,3,8,2,0,0,6,1,0|0,0,7,1,6,3,0,0,0,0|8,1,6,2,5,4,0,3,0,0|0,2,0,0,0,3,1,10,5,0|10,7,0,8,2,0,0,3,4,0|0,8,0,6,0,0,4,0,10,7|9,0,1,0,0,2,6,0,5,0|];
bottom=[3225600,156800,1837080,645120,1008000,122472,777600,583200,378000
,8601600]